NAME : random_9
COMMENT : 45 random nodes
TYPE : TSP
DIMENSION : 45
EDGE_WEIGHT_TYPE : EUC_2D
NODE_COORD_SECTION
1 -3643 -5872
2 3750 709
3 -5968 2096
4 4171 -4768
5 -4452 7364
6 1480 -1334
7 -5524 2540
8 6025 7142
9 -4758 2369
10 7124 -3085
11 -4687 911
12 6215 4181
13 4619 4848
14 -2409 4250
15 -4139 -5857
16 4249 3168
17 -4453 -1915
18 4148 -6158
19 -4042 1504
20 -2408 -975
21 3423 1436
22 2684 1238
23 -475 7315
24 -5507 626
25 3985 -3773
26 -4406 6832
27 -4859 364
28 472 -5276
29 -1349 -1741
30 -4730 4461
31 4763 6184
32 -4424 1426
33 -1117 -539
34 702 -909
35 -2430 -2727
36 4500 1006
37 607 -3366
38 3021 2638
39 7199 3361
40 -4286 3592
41 -3185 -2703
42 -1650 -4180
43 5594 3580
44 -1256 7436
45 4445 -1790
EOF